8092
31, 23, 20, 50, 44, 34, 35, 36, 49, 1, 22, 32, 45, 19, 41, 8, 10, 9, 33, 43, 51, 11, 52, 14, 13, 47, 26, 27, 28, 12, 25, 4, 6, 15, 5, 24, 48, 38, 39, 40, 37, 46, 16, 29, 30, 7, 2, 42, 21, 17, 3, 18
